c FILE /home/rafael/Documents/HappySet/MIHS/inputs/happygen/output/graph_scale_free_k7_p0.4_v100_20241127_083901.txt
c SOURCE This is a scale-free graph formed for the happy graph colouring problem.
c DESCRIPTION It was generated using the problem generator of Rhyd Lewis
c
c GRAPH STATS
c Seed                             = 297719843
c Number of Nodes                  = 100
c Number of colours k              = 7
c Number of pre-assignments        = 40
c Number of links per new node     = 5
c Density                          = 0.0979798
c 
c The degrees of nodes 1 to 100, respectively, are as follows 
c [36, 36, 34, 29, 25, 23, 23, 21, 20, 19, 19, 19, 18, 16, 16, 15, 15, 14, 14, 13, 12, 12, 12, 11, 11, 10, 
c  9, 9, 9, 9, 9, 9, 8, 8, 8, 8, 8, 8, 8, 8, 8, 8, 8, 8, 8, 8, 8, 8, 7, 7, 7, 
c  7, 7, 7, 7, 7, 7, 7, 7, 7, 6, 6, 6, 6, 6, 6, 6, 6, 6, 6, 6, 5, 5, 5, 5, 5, 
c  5, 5, 5, 5, 5, 5, 5, 5, 5, 5, 5, 5, 5, 5, 5, 5, 5, 5, 5, 5, 5, 5, 5, 5] 
c  
p edge 100 485 7
e 1 2
e 1 3
e 1 4
e 1 5
e 1 6
e 1 7
e 1 8
e 1 10
e 1 11
e 1 13
e 1 15
e 1 16
e 1 18
e 1 20
e 1 21
e 1 22
e 1 26
e 1 28
e 1 31
e 1 38
e 1 39
e 1 40
e 1 41
e 1 45
e 1 49
e 1 50
e 1 51
e 1 53
e 1 54
e 1 67
e 1 69
e 1 73
e 1 76
e 1 79
e 1 82
e 1 87
e 2 3
e 2 4
e 2 5
e 2 7
e 2 8
e 2 9
e 2 10
e 2 11
e 2 12
e 2 14
e 2 21
e 2 24
e 2 25
e 2 27
e 2 28
e 2 30
e 2 33
e 2 34
e 2 40
e 2 41
e 2 42
e 2 44
e 2 45
e 2 47
e 2 48
e 2 53
e 2 54
e 2 60
e 2 61
e 2 68
e 2 77
e 2 83
e 2 86
e 2 89
e 2 93
e 3 4
e 3 5
e 3 8
e 3 9
e 3 10
e 3 15
e 3 18
e 3 20
e 3 21
e 3 22
e 3 23
e 3 24
e 3 27
e 3 30
e 3 33
e 3 38
e 3 40
e 3 42
e 3 57
e 3 61
e 3 62
e 3 63
e 3 70
e 3 74
e 3 75
e 3 82
e 3 85
e 3 88
e 3 89
e 3 94
e 3 95
e 3 97
e 4 5
e 4 6
e 4 9
e 4 10
e 4 11
e 4 12
e 4 13
e 4 14
e 4 18
e 4 21
e 4 23
e 4 24
e 4 27
e 4 33
e 4 34
e 4 38
e 4 49
e 4 54
e 4 65
e 4 67
e 4 80
e 4 87
e 4 88
e 4 90
e 4 91
e 4 99
e 5 7
e 5 9
e 5 10
e 5 11
e 5 12
e 5 13
e 5 21
e 5 22
e 5 23
e 5 28
e 5 29
e 5 31
e 5 34
e 5 37
e 5 41
e 5 45
e 5 46
e 5 77
e 5 83
e 5 84
e 5 90
e 6 10
e 6 11
e 6 13
e 6 16
e 6 20
e 6 23
e 6 25
e 6 29
e 6 33
e 6 35
e 6 37
e 6 49
e 6 53
e 6 56
e 6 59
e 6 63
e 6 67
e 6 74
e 6 79
e 6 89
e 6 100
e 7 8
e 7 10
e 7 11
e 7 14
e 7 16
e 7 17
e 7 18
e 7 35
e 7 39
e 7 42
e 7 50
e 7 52
e 7 62
e 7 71
e 7 72
e 7 75
e 7 78
e 7 85
e 7 92
e 7 99
e 8 9
e 8 13
e 8 19
e 8 20
e 8 22
e 8 37
e 8 39
e 8 41
e 8 42
e 8 48
e 8 51
e 8 64
e 8 69
e 8 78
e 8 81
e 8 83
e 8 96
e 9 28
e 9 34
e 9 35
e 9 38
e 9 44
e 9 47
e 9 52
e 9 58
e 9 66
e 9 68
e 9 69
e 9 71
e 9 76
e 9 78
e 9 91
e 10 11
e 10 13
e 10 25
e 10 26
e 10 37
e 10 47
e 10 52
e 10 55
e 10 62
e 10 71
e 10 84
e 10 95
e 11 12
e 11 13
e 11 16
e 11 19
e 11 27
e 11 33
e 11 39
e 11 46
e 11 51
e 11 73
e 11 78
e 11 97
e 12 14
e 12 18
e 12 19
e 12 22
e 12 30
e 12 32
e 12 35
e 12 43
e 12 46
e 12 50
e 12 56
e 12 58
e 12 59
e 12 60
e 12 64
e 13 18
e 13 24
e 13 25
e 13 31
e 13 36
e 13 40
e 13 46
e 13 61
e 13 72
e 13 73
e 13 80
e 14 15
e 14 17
e 14 23
e 14 34
e 14 35
e 14 50
e 14 52
e 14 55
e 14 72
e 14 89
e 14 90
e 14 92
e 15 22
e 15 26
e 15 27
e 15 36
e 15 54
e 15 56
e 15 66
e 15 71
e 15 84
e 15 85
e 15 87
e 15 95
e 15 100
e 16 17
e 16 21
e 16 29
e 16 43
e 16 50
e 16 54
e 16 55
e 16 57
e 16 63
e 16 70
e 16 76
e 17 18
e 17 20
e 17 23
e 17 28
e 17 44
e 17 46
e 17 53
e 17 59
e 17 60
e 17 65
e 17 70
e 17 72
e 18 23
e 18 31
e 18 44
e 18 61
e 18 76
e 18 80
e 18 98
e 19 22
e 19 29
e 19 33
e 19 40
e 19 57
e 19 62
e 19 64
e 19 75
e 19 85
e 19 86
e 19 91
e 20 37
e 20 48
e 20 49
e 20 51
e 20 73
e 20 81
e 20 93
e 20 98
e 21 24
e 21 27
e 21 29
e 21 53
e 21 57
e 21 90
e 22 25
e 22 38
e 22 49
e 22 51
e 22 96
e 23 43
e 23 63
e 23 86
e 23 90
e 23 98
e 24 43
e 24 44
e 24 55
e 24 56
e 24 61
e 24 91
e 25 32
e 25 36
e 25 58
e 25 64
e 25 65
e 25 84
e 26 27
e 26 37
e 26 58
e 26 70
e 26 78
e 26 81
e 26 88
e 27 59
e 27 87
e 28 47
e 28 79
e 28 85
e 28 94
e 29 36
e 29 62
e 29 77
e 29 99
e 30 38
e 30 41
e 30 56
e 30 63
e 30 88
e 30 100
e 31 43
e 31 45
e 31 48
e 31 69
e 31 76
e 32 34
e 32 36
e 32 45
e 32 73
e 32 75
e 32 94
e 32 96
e 33 92
e 33 98
e 34 52
e 34 66
e 35 36
e 35 79
e 35 82
e 36 39
e 36 69
e 37 58
e 37 82
e 38 89
e 38 93
e 39 66
e 39 83
e 39 97
e 40 42
e 40 43
e 40 65
e 41 52
e 41 93
e 41 100
e 42 47
e 42 77
e 42 87
e 43 83
e 43 97
e 44 59
e 44 68
e 44 74
e 45 57
e 45 61
e 45 74
e 46 74
e 46 92
e 46 99
e 47 80
e 47 82
e 47 91
e 48 54
e 48 67
e 48 81
e 48 97
e 49 70
e 49 86
e 50 71
e 50 72
e 51 77
e 51 88
e 52 95
e 53 55
e 53 60
e 54 64
e 55 60
e 55 65
e 56 67
e 56 79
e 57 68
e 57 84
e 58 80
e 58 94
e 59 96
e 59 99
e 60 95
e 60 96
e 62 86
e 63 66
e 64 94
e 65 75
e 66 68
e 67 93
e 68 81
e 69 92
e 70 100
e 71 98
n 17 2
n 19 1
n 21 5
n 25 6
n 27 5
n 31 5
n 37 3
n 38 1
n 39 5
n 41 4
n 42 3
n 43 5
n 44 2
n 47 3
n 48 5
n 49 2
n 50 2
n 51 7
n 52 4
n 55 1
n 56 1
n 61 1
n 63 5
n 66 5
n 69 5
n 72 2
n 73 7
n 74 2
n 75 1
n 76 5
n 78 3
n 79 1
n 82 3
n 83 5
n 85 1
n 89 1
n 95 4
n 96 6
n 98 5
n 99 7
